************************************************************************
file with basedata            : n/a
initial value random generator: n/a
************************************************************************
projects                      :  1
jobs (incl. supersource/sink ):  32
horizon                       :  174
RESOURCES
  - renewable                 :  4   R
  - nonrenewable              :  0   N
  - doubly constrained        :  0   D
************************************************************************
PROJECT INFORMATION:
pronr.  #jobs rel.date duedate tardcost  MPM-Time
    1     30      0       65       24       65
************************************************************************
PRECEDENCE RELATIONS:
jobnr.    #modes  #successors   successors
   1        1          3           2   3   4
   2        1          3          10  12  21
   3        1          3          10  26  27
   4        1          3           5   6  11
   5        1          3           8  16  29
   6        1          3           7   8   9
   7        1          3          14  18  19
   8        1          3          17  20  21
   9        1          3          10  12  21
  10        1          3          13  16  19
  11        1          3          12  14  16
  12        1          3          18  20  22
  13        1          3          14  18  23
  14        1          1          15
  15        1          3          17  24  29
  16        1          1          25
  17        1          1          30
  18        1          1          28
  19        1          3          23  29  31
  20        1          3          24  26  27
  21        1          3          22  24  27
  22        1          3          23  25  26
  23        1          1          30
  24        1          2          25  28
  25        1          1          31
  26        1          1          30
  27        1          1          28
  28        1          1          31
  29        1          1          32
  30        1          1          32
  31        1          1          32
  32        1          0        
************************************************************************
REQUESTS/DURATIONS:
jobnr. mode duration  R 1  R 2  R 3  R 4
------------------------------------------------------------------------
  1      1     0    
  2      1     3       9   9   9
                       3   3   3
                       0   0   0
                       1   1   1
  3      1    10       0   0   0   0   0   0   0   0   0   0
                       0   0   0   0   0   0   0   0   0   0
                       4   4   8   8   4   8   8   8   4   8
                       5   5   9   9   5   9   9   9   5   9
  4      1     6       7   7   7   7   7   7
                       0   0   0   0   0   0
                       0   0   0   0   0   0
                       6   6   6   6   6   6
  5      1     9       3   3   3   3   3   3   3   3   3
                       4   4   4   4   4   4   4   4   4
                       7   7   7   7   7   7   7   7   7
                       7   7   7   7   7   7   7   7   7
  6      1     7       0   0   0   0   0   0   0
                       3   2   3   3   3   3   3
                       0   0   0   0   0   0   0
                      10   5  10  10  10  10  10
  7      1     2       1   1
                       9   9
                       4   4
                      10  10
  8      1     1       2
                       2
                       3
                       1
  9      1     6       4   4   4   4   4   4
                       1   1   1   1   1   1
                       0   0   0   0   0   0
                       7   7   7   7   7   7
 10      1    10       0   0   0   0   0   0   0   0   0   0
                       2   2   2   2   2   1   2   2   1   1
                       0   0   0   0   0   0   0   0   0   0
                      10  10  10  10  10   5  10  10   5   5
 11      1     4       0   0   0   0
                       0   0   0   0
                      10  10   5  10
                       7   7   4   7
 12      1     3       1   1   1
                       4   4   4
                       0   0   0
                       0   0   0
 13      1     9       3   3   3   3   2   3   2   2   2
                       2   2   2   2   1   2   1   1   1
                       1   1   1   1   1   1   1   1   1
                       9   9   9   9   5   9   5   5   5
 14      1    10       1   1   1   1   1   1   1   1   1   1
                       3   3   3   3   3   3   3   2   2   3
                       0   0   0   0   0   0   0   0   0   0
                       5   5   5   5   5   5   5   3   3   5
 15      1     3       6   6   6
                       0   0   0
                       5   5   5
                       4   4   4
 16      1    10       4   2   4   4   4   4   4   2   2   4
                       5   3   5   5   5   5   5   3   3   5
                      10   5  10  10  10  10  10   5   5  10
                       6   3   6   6   6   6   6   3   3   6
 17      1     6       1   1   1   1   1   1
                       5   5   5   5   3   3
                       4   4   4   4   2   2
                       8   8   8   8   4   4
 18      1     6       0   0   0   0   0   0
                       5   5   3   5   3   5
                       1   1   1   1   1   1
                       8   8   4   8   4   8
 19      1     1       6
                       0
                       8
                       2
 20      1     8       2   2   4   2   2   4   4   2
                       1   1   1   1   1   1   1   1
                       5   5   9   5   5   9   9   5
                       3   3   5   3   3   5   5   3
 21      1     4       0   0   0   0
                       5   5   5   3
                       0   0   0   0
                       7   7   7   4
 22      1     7       4   7   7   4   7   7   7
                       3   6   6   3   6   6   6
                       1   1   1   1   1   1   1
                       0   0   0   0   0   0   0
 23      1     3       3   6   6
                       3   5   5
                       5   9   9
                       4   7   7
 24      1     5       8   8   8   8   8
                       0   0   0   0   0
                       4   4   4   4   4
                       6   6   6   6   6
 25      1     3       0   0   0
                       9   5   5
                      10   5   5
                       8   4   4
 26      1    10       3   3   2   3   2   3   3   2   3   3
                       1   1   1   1   1   1   1   1   1   1
                       5   5   3   5   3   5   5   3   5   5
                       4   4   2   4   2   4   4   2   4   4
 27      1     6       0   0   0   0   0   0
                       0   0   0   0   0   0
                       1   1   1   1   1   1
                       3   2   3   3   3   3
 28      1     1       1
                       2
                       0
                       1
 29      1    10       0   0   0   0   0   0   0   0   0   0
                       2   3   2   3   3   3   3   3   2   3
                       4   8   4   8   8   8   8   8   4   8
                       5   9   5   9   9   9   9   9   5   9
 30      1     5       7   7   7   4   4
                       1   1   1   1   1
                       0   0   0   0   0
                       2   2   2   1   1
 31      1     6       7   7   7   7   4   7
                       3   3   3   3   2   3
                      10  10  10  10   5  10
                       0   0   0   0   0   0
 32      1     0    
************************************************************************
RESOURCEAVAILABILITIES:
  R 1  R 2  R 3  R 4

  17  17  17  17  17   9  17  17  17  17  17  17   9  17  17  17  17  17  17  17  17  17  17  17  17  17  17  17  17   9  17  17  17  17  17  17  17  17  17  17   9  17   9  17  17  17  17  17  17   9  17  17  17   9  17  17  17  17  17  17  17   9   9  17  17  17  17  17  17  17  17  17  17  17  17  17  17   9  17  17   9  17  17  17  17  17  17  17   9  17  17  17   9   9  17  17  17  17  17  17   9  17  17  17  17   9  17  17  17  17   9  17  17  17  17  17  17   9  17  17  17  17  17  17  17  17  17  17  17  17   9   9  17  17  17  17  17  17  17  17  17  17  17  17  17  17  17  17  17  17  17   9  17  17  17  17   9  17  17  17  17  17   9  17  17  17  17  17   9   9  17  17  17  17

  14  14  14  14  14   7  14  14  14  14  14  14   7  14  14  14  14  14  14  14  14  14  14  14  14  14  14  14  14   7  14  14  14  14  14  14  14  14  14  14   7  14   7  14  14  14  14  14  14   7  14  14  14   7  14  14  14  14  14  14  14   7   7  14  14  14  14  14  14  14  14  14  14  14  14  14  14   7  14  14   7  14  14  14  14  14  14  14   7  14  14  14   7   7  14  14  14  14  14  14   7  14  14  14  14   7  14  14  14  14   7  14  14  14  14  14  14   7  14  14  14  14  14  14  14  14  14  14  14  14   7   7  14  14  14  14  14  14  14  14  14  14  14  14  14  14  14  14  14  14  14   7  14  14  14  14   7  14  14  14  14  14   7  14  14  14  14  14   7   7  14  14  14  14

  20  20  20  20  20  10  20  20  20  20  20  20  10  20  20  20  20  20  20  20  20  20  20  20  20  20  20  20  20  10  20  20  20  20  20  20  20  20  20  20  10  20  10  20  20  20  20  20  20  10  20  20  20  10  20  20  20  20  20  20  20  10  10  20  20  20  20  20  20  20  20  20  20  20  20  20  20  10  20  20  10  20  20  20  20  20  20  20  10  20  20  20  10  10  20  20  20  20  20  20  10  20  20  20  20  10  20  20  20  20  10  20  20  20  20  20  20  10  20  20  20  20  20  20  20  20  20  20  20  20  10  10  20  20  20  20  20  20  20  20  20  20  20  20  20  20  20  20  20  20  20  10  20  20  20  20  10  20  20  20  20  20  10  20  20  20  20  20  10  10  20  20  20  20

  22  22  22  22  22  11  22  22  22  22  22  22  11  22  22  22  22  22  22  22  22  22  22  22  22  22  22  22  22  11  22  22  22  22  22  22  22  22  22  22  11  22  11  22  22  22  22  22  22  11  22  22  22  11  22  22  22  22  22  22  22  11  11  22  22  22  22  22  22  22  22  22  22  22  22  22  22  11  22  22  11  22  22  22  22  22  22  22  11  22  22  22  11  11  22  22  22  22  22  22  11  22  22  22  22  11  22  22  22  22  11  22  22  22  22  22  22  11  22  22  22  22  22  22  22  22  22  22  22  22  11  11  22  22  22  22  22  22  22  22  22  22  22  22  22  22  22  22  22  22  22  11  22  22  22  22  11  22  22  22  22  22  11  22  22  22  22  22  11  11  22  22  22  22

************************************************************************
